c
c
c
c
c
14 105
0 0 -1
0 1 23
0 2 13
0 3 21
0 4 24
0 5 19
0 6 30
0 7 23
0 8 3
0 9 29
0 10 7
0 11 23
0 12 18
0 13 4
1 1 -1
1 2 5
1 3 17
1 4 1
1 5 26
1 6 16
1 7 29
1 8 25
1 9 17
1 10 6
1 11 16
1 12 25
1 13 25
2 2 -1
2 3 9
2 4 15
2 5 22
2 6 10
2 7 8
2 8 5
2 9 7
2 10 15
2 11 12
2 12 18
2 13 9
3 3 -1
3 4 20
3 5 10
3 6 6
3 7 19
3 8 18
3 9 11
3 10 9
3 11 7
3 12 28
3 13 6
4 4 -1
4 5 29
4 6 23
4 7 27
4 8 30
4 9 13
4 10 27
4 11 22
4 12 8
4 13 12
5 5 -1
5 6 5
5 7 2
5 8 3
5 9 18
5 10 14
5 11 26
5 12 29
5 13 16
6 6 -1
6 7 11
6 8 28
6 9 20
6 10 9
6 11 2
6 12 18
6 13 27
7 7 -1
7 8 25
7 9 11
7 10 30
7 11 18
7 12 29
7 13 2
8 8 -1
8 9 17
8 10 9
8 11 1
8 12 21
8 13 25
9 9 -1
9 10 7
9 11 29
9 12 22
9 13 29
10 10 -1
10 11 28
10 12 13
10 13 29
11 11 -1
11 12 18
11 13 29
12 12 -1
12 13 21
13 13 -1
